NAME: random_20_1
TYPE: TSP
COMMENT: random_20_1
DIMENSION: 20
EDGE_WEIGHT_TYPE: EUC_2D
NODE_COORD_SECTION
1 348 130
2 282 225
3 394 357
4 83 496
5 247 140
6 354 299
7 272 450
8 417 42
9 10 34
10 390 433
11 157 94
12 362 27
13 93 122
14 9 291
15 217 487
16 189 330
17 65 129
18 206 241
19 147 20
20 380 78
